5 5
4 91 2 4 1 21 0 31 3 21
0 25 1 15 4 35 3 49 2 43
4 41 0 37 1 57 2 42 3 47
1 92 4 61 2 14 0 68 3 53
3 84 0 34 1 76 2 97 4 24
-1
0 2 5
0 2 4 5
0 3 5
0 4 5
0 4 5
-2
151 224
59 136 256
199 263
361 365
368 348

380 5
5 11 21 18 3
15 6 12 22 2
1 13 17 23 9
20 14 8 19 4
10 0 16 7 24
